qbf_easy_train/easy_336_SAT.qdimacs
p cnf 36 99
a 33 13 21 0
e 1 2 3 4 5 6 7 8 9 10 11 12 14 15 16 17 18 19 20 22 23 24 25 26 27 28 29 30 31 32 34 35 36 0
4 -2 0
4 3 0
2 -3 -4 0
6 -4 0
6 -5 0
4 5 -6 0
-7 -2 0
-7 -6 0
2 6 7 0
8 1 0
8 -7 0
-1 7 -8 0
-9 8 0
-9 -4 0
-8 4 9 0
-10 6 0
-10 8 0
-6 -8 10 0
-11 -9 0
-11 10 0
9 -10 11 0
12 13 -14 0
-12 -13 -14 0
12 -13 14 0
-12 13 14 0
16 14 0
16 -15 0
-14 15 -16 0
-17 1 0
-17 -1 0
-16 17 -18 0
16 -17 -18 0
-16 -17 18 0
16 17 18 0
-5 -2 -19 0
5 2 -19 0
-5 2 19 0
5 -2 19 0
-20 18 0
-20 -19 0
-18 19 20 0
21 -14 0
21 5 0
14 -5 -21 0
22 -12 0
22 12 0
-23 -21 0
-23 22 0
21 -22 23 0
24 20 0
24 -23 0
-20 23 -24 0
-25 11 0
-25 24 0
-11 -24 25 0
-4 -16 -26 0
4 16 -26 0
-4 16 26 0
4 -16 26 0
-27 3 0
-27 16 0
-3 -16 27 0
15 17 -28 0
-15 -17 -28 0
15 -17 28 0
-15 17 28 0
-29 27 0
-29 28 0
-27 -28 29 0
30 26 0
30 29 0
-26 -29 -30 0
-25 30 -31 0
25 -30 -31 0
-25 -30 31 0
25 30 31 0
-33 -32 0
-33 4 0
32 -4 33 0
-13 -3 -34 0
13 3 -34 0
-13 3 34 0
13 -3 34 0
35 -33 0
35 -34 0
33 34 -35 0
36 31 0
36 35 0
-31 -35 -36 0
-3 -35 -27 19 -17 -26 -22 0
8 -18 25 0
-16 2 20 25 0
8 20 -16 24 0
-19 -34 26 -29 -16 30 35 0
25 -8 7 -24 0
5 33 -24 0
1 26 -30 -11 16 0
-7 -30 -20 -11 14 0
36 0
