sat_easy_train/easy_336_SAT.dimacs
p cnf 108 361
-1 2 -3 0
1 -2 -3 0
-1 -2 3 0
1 2 3 0
-5 6 -7 0
5 -6 -7 0
-5 -6 7 0
5 6 7 0
-4 7 -8 0
4 -7 -8 0
-4 -7 8 0
4 7 8 0
-9 3 0
-9 -8 0
-3 8 9 0
10 -1 0
10 1 0
-12 3 0
-12 11 0
-3 -11 12 0
-13 -6 0
-13 -12 0
6 12 13 0
11 14 -15 0
-11 -14 -15 0
11 -14 15 0
-11 14 15 0
17 15 0
17 -16 0
-15 16 -17 0
-18 13 0
-18 17 0
-13 -17 18 0
-10 18 -19 0
10 -18 -19 0
-10 -18 19 0
10 18 19 0
6 -20 -21 0
-6 20 -21 0
6 20 21 0
-6 -20 21 0
-22 3 -23 0
22 -3 -23 0
-22 -3 23 0
22 3 23 0
21 -23 -24 0
-21 23 -24 0
21 23 24 0
-21 -23 24 0
25 2 0
25 -4 0
-2 4 -25 0
-8 25 -26 0
8 -25 -26 0
-8 -25 26 0
8 25 26 0
-27 -26 0
-27 13 0
26 -13 27 0
24 27 -28 0
-24 -27 -28 0
24 -27 28 0
-24 27 28 0
19 -28 -29 0
-19 28 -29 0
19 28 29 0
-19 -28 29 0
-30 -9 0
-30 29 0
9 -29 30 0
31 -15 0
31 11 0
15 -11 -31 0
31 5 -32 0
-31 -5 -32 0
31 -5 32 0
-31 5 32 0
33 3 0
33 -32 0
-3 32 -33 0
35 16 -36 0
-35 -16 -36 0
35 -16 36 0
-35 16 36 0
-37 34 0
-37 36 0
-34 -36 37 0
38 -33 0
38 -37 0
33 37 -38 0
-31 -13 -39 0
31 13 -39 0
-31 13 39 0
31 -13 39 0
41 -2 0
41 40 0
2 -40 -41 0
39 41 -42 0
-39 -41 -42 0
39 -41 42 0
-39 41 42 0
-38 -42 -43 0
38 42 -43 0
-38 42 43 0
38 -42 43 0
44 30 0
44 43 0
-30 -43 -44 0
46 -45 0
46 -45 0
45 -46 0
-47 16 -48 0
47 -16 -48 0
-47 -16 48 0
47 16 48 0
48 -16 -49 0
-48 16 -49 0
48 16 49 0
-48 -16 49 0
-50 -49 0
-50 23 0
49 -23 50 0
-46 -50 -51 0
46 50 -51 0
-46 50 51 0
46 -50 51 0
-52 -4 0
-52 45 0
4 -45 52 0
53 40 0
53 -52 0
-40 52 -53 0
54 -37 0
54 53 0
37 -53 -54 0
-55 17 0
-55 -3 0
-17 3 55 0
-56 -45 0
-56 6 0
45 -6 56 0
-57 -56 0
-57 -2 0
56 2 57 0
-58 57 0
-58 -17 0
-57 17 58 0
-34 -3 -59 0
34 3 -59 0
-34 3 59 0
34 -3 59 0
-60 -58 0
-60 59 0
58 -59 60 0
-55 60 -61 0
55 -60 -61 0
-55 -60 61 0
55 60 61 0
62 -56 0
62 -11 0
56 11 -62 0
63 61 0
63 62 0
-61 -62 -63 0
64 54 0
64 -63 0
-54 63 -64 0
51 64 -65 0
-51 -64 -65 0
51 -64 65 0
-51 64 65 0
-66 36 0
-66 34 0
-36 -34 66 0
-67 65 0
-67 66 0
-65 -66 67 0
68 -16 0
68 49 0
16 -49 -68 0
-49 -59 -69 0
49 59 -69 0
-49 59 69 0
49 -59 69 0
-70 69 0
-70 -36 0
-69 36 70 0
71 -4 0
71 -7 0
4 7 -71 0
-72 45 0
-72 15 0
-45 -15 72 0
-73 -71 0
-73 -72 0
71 72 73 0
-70 73 -74 0
70 -73 -74 0
-70 -73 74 0
70 73 74 0
-68 -74 -75 0
68 74 -75 0
-68 74 75 0
68 -74 75 0
-11 17 -76 0
11 -17 -76 0
-11 -17 76 0
11 17 76 0
-76 -15 -77 0
76 15 -77 0
-76 15 77 0
76 -15 77 0
78 -17 0
78 -2 0
17 2 -78 0
-79 -78 0
-79 45 0
78 -45 79 0
80 -1 0
80 5 0
1 -5 -80 0
-1 80 -81 0
1 -80 -81 0
-1 -80 81 0
1 80 81 0
82 79 0
82 -81 0
-79 81 -82 0
83 77 0
83 -82 0
-77 82 -83 0
-75 -83 -84 0
75 83 -84 0
-75 83 84 0
75 -83 84 0
-85 -3 0
-85 5 0
3 -5 85 0
-36 -21 -86 0
36 21 -86 0
-36 21 86 0
36 -21 86 0
-87 -4 0
-87 -48 0
4 48 87 0
87 -88 -89 0
-87 88 -89 0
87 88 89 0
-87 -88 89 0
-86 89 -90 0
86 -89 -90 0
-86 -89 90 0
86 89 90 0
-91 49 0
-91 58 0
-49 -58 91 0
-92 -87 0
-92 87 0
-93 -91 0
-93 -92 0
91 92 93 0
94 -16 0
94 -33 0
16 33 -94 0
95 -17 0
95 -7 0
17 7 -95 0
-94 -95 -96 0
94 95 -96 0
-94 95 96 0
94 -95 96 0
-97 -93 0
-97 -96 0
93 96 97 0
-90 97 -98 0
90 -97 -98 0
-90 -97 98 0
90 97 98 0
-99 -85 0
-99 -98 0
85 98 99 0
16 37 -100 0
-16 -37 -100 0
16 -37 100 0
-16 37 100 0
-37 -7 -101 0
37 7 -101 0
-37 7 101 0
37 -7 101 0
102 -100 0
102 -101 0
100 101 -102 0
103 -49 0
103 21 0
49 -21 -103 0
102 103 -104 0
-102 -103 -104 0
102 -103 104 0
-102 103 104 0
-105 -99 0
-105 104 0
99 -104 105 0
-84 105 -106 0
84 -105 -106 0
-84 -105 106 0
84 105 106 0
-67 -106 -107 0
67 106 -107 0
-67 106 107 0
67 -106 107 0
108 44 0
108 107 0
-44 -107 -108 0
-35 84 0
-100 -8 88 -19 0
43 85 32 51 -72 0
84 9 0
-102 -88 0
102 69 -56 -33 0
-96 -51 -59 53 -10 84 0
60 -1 -81 -63 -47 0
-1 -19 102 39 99 0
-66 1 -17 102 14 -38 0
84 -27 -1 -13 0
-57 40 70 -43 88 81 0
48 -13 108 104 -94 97 0
75 -28 34 0
-26 -58 -78 -1 -66 37 0
18 -70 0
72 65 107 -93 -66 0
70 107 0
-47 -83 0
40 59 -61 5 -21 0
-26 48 58 -63 0
49 76 46 -62 -55 -35 0
91 2 0
-100 7 -74 84 -80 0
37 103 0
2 -51 39 0
89 -45 53 33 0
98 69 75 0
79 78 0
-29 15 68 -14 -38 -12 0
43 -57 0
92 54 -86 96 100 0
-37 -63 -6 53 -39 0
97 -66 76 14 -89 -46 0
101 -48 0
-93 47 -97 -64 0
108 -76 -96 -66 52 0
-105 103 51 -15 98 -31 0
77 -4 12 0
-89 105 0
-50 -71 -88 90 -61 0
82 49 20 89 -102 0
26 -65 39 0
-30 1 0
-13 -3 -69 -9 104 0
-68 -82 -103 -85 0
-12 -5 36 31 52 105 0
108 0
